(set-info :Origin "This instance was generated by: BanditFuzz-- an RL fuzzer for SMT solvers" )
(set-info :Author "Joe Scott, Fed Mora, Vijay Ganesh" )
(set-info :Contact "Joe Scott, joseph.scott@uwaterloo.ca")
(set-logic QF_BV)
(declare-const bool_0 Bool)
(declare-const bool_1 Bool)
(declare-const bool_2 Bool)
(declare-const bool_3 Bool)
(declare-const bool_4 Bool)
(declare-const bv_0 (_ BitVec 32))
(declare-const bv_1 (_ BitVec 32))
(declare-const bv_2 (_ BitVec 32))
(declare-const bv_3 (_ BitVec 32))
(declare-const bv_4 (_ BitVec 32))
(assert (bvuge (bvlshr (bvudiv #xf057f1d8  bv_0) (bvsmod #xff2b6b91  #x2e308cc2 )) (bvxor (bvsmod bv_4 #x17e2abfa ) (bvurem bv_4 bv_3))))
(assert (xor (and (xor bool_1 bool_2) (bvult #x80fdbf93  #xd5e5a66b )) (=> (or bool_2 false) (bvsle #x37b8fb27  bv_1))))
(assert (or (bvugt (bvsmod #x3ae24022  bv_3) (bvor #xc38cf7b1  bv_0)) (bvugt (bvsub bv_2 bv_4) (bvnand bv_3 #x3a5dd108 ))))
(assert (xor (and (or bool_0 true) (bvuge #x65e2023f  #x29ac4328 )) (not (and bool_4 bool_0))))
(assert (and (bvugt (bvashr #xc3eb2bd4  #xb10148ba ) (bvsdiv bv_3 #x3362fe5a )) (bvugt (bvsrem #x38600d77  #x21698996 ) (bvnand bv_0 bv_4))))
(check-sat)
(exit)
